data/mip_solutions/furman_sahinidis/reduced_transportation/10sp-ol1_gurobi.sol
Elapsed time: 0.110415220261
Nodes explored: 0
Upper bound: 14.0
Lower bound: 14.0
y[0,0]=1
y[0,3]=1
y[0,6]=1
y[1,0]=1
y[1,4]=1
y[2,1]=1
y[3,0]=1
y[3,1]=1
y[3,2]=1
y[3,4]=1
y[3,5]=1
y[3,6]=1
y[4,0]=1
y[4,4]=1
q[0,0,0,0]=9.5
q[0,0,3,1]=1.2
q[0,1,0,1]=6.0
q[0,2,0,2]=0.4
q[0,2,3,2]=0.6
q[0,3,0,3]=1.575
q[0,3,3,3]=2.4
q[0,3,3,4]=0.025
q[0,4,3,4]=1.175
q[0,4,6,7]=0.825
q[0,5,3,5]=1.2
q[0,5,6,7]=0.8
q[0,6,6,7]=2.5
q[0,7,6,7]=1.5
q[1,1,0,1]=6.0
q[1,1,0,2]=0.48
q[1,1,4,1]=8.52
q[2,1,1,1]=0.98
q[2,1,1,2]=0.22
q[2,2,1,2]=0.2
q[2,3,1,4]=0.8
q[2,4,1,4]=0.4
q[2,5,1,5]=0.4
q[2,6,1,6]=0.2
q[3,2,0,2]=1.12
q[3,2,1,2]=0.28
q[3,2,4,2]=2.0
q[3,3,0,3]=6.425
q[3,3,1,3]=2.8
q[3,3,2,3]=4.375
q[3,4,1,4]=0.2
q[3,4,2,4]=3.5
q[3,4,6,7]=3.1
q[3,5,1,5]=1.0
q[3,5,1,6]=1.55
q[3,5,5,7]=3.5
q[3,5,6,7]=0.75
q[3,6,5,6]=4.5
q[3,6,5,7]=4.0
q[4,0,0,0]=8.5
q[4,0,4,0]=18.0
q[4,0,4,1]=3.48
